; SWAP2 DUP2 SWAP3 POP POP => DUP2 SWAP3 POP POP
(set-option :produce-proofs true)
; 
(set-info :status unknown)
(declare-fun storage_t ((_ BitVec 256) (_ BitVec 256) (_ BitVec 256) Int (_ BitVec 256)) (_ BitVec 256))
(declare-fun storage_s ((_ BitVec 256) (_ BitVec 256) (_ BitVec 256) Int (_ BitVec 256)) (_ BitVec 256))
(declare-fun exc_halt_t (Int) Bool)
(declare-fun exc_halt_s (Int) Bool)
(declare-fun sc_t (Int) (_ BitVec 6))
(declare-fun stack_t ((_ BitVec 256) (_ BitVec 256) (_ BitVec 256) Int (_ BitVec 6)) (_ BitVec 256))
(declare-fun stack_s ((_ BitVec 256) (_ BitVec 256) (_ BitVec 256) Int (_ BitVec 6)) (_ BitVec 256))
(declare-fun sc_s (Int) (_ BitVec 6))
(declare-fun used_gas_t ((_ BitVec 256) (_ BitVec 256) (_ BitVec 256) Int) Int)
(declare-fun used_gas_s ((_ BitVec 256) (_ BitVec 256) (_ BitVec 256) Int) Int)
(assert
 (exists ((x_0 (_ BitVec 256)) (x_1 (_ BitVec 256)) (x_2 (_ BitVec 256)) )(let (($x297 (forall ((w (_ BitVec 256)) )(let ((?x4744 (storage_t x_0 x_1 x_2 4 w)))
 (let ((?x4791 (storage_s x_0 x_1 x_2 5 w)))
 (= ?x4791 ?x4744))))
 ))
 (let (($x3723 (exc_halt_t 4)))
 (let (($x3979 (exc_halt_s 5)))
 (let (($x7567 (= $x3979 $x3723)))
 (let (($x4703 (forall ((n (_ BitVec 6)) )(let ((?x3757 (sc_t 4)))
 (let (($x6373 (bvsle ?x3757 n)))
 (let ((?x32 (stack_t x_0 x_1 x_2 4 n)))
 (let ((?x202 (stack_s x_0 x_1 x_2 5 n)))
 (let (($x258 (= ?x202 ?x32)))
 (or $x258 $x6373)))))))
 ))
 (let ((?x3757 (sc_t 4)))
 (let ((?x805 (sc_s 5)))
 (let (($x9143 (= ?x805 ?x3757)))
 (let ((?x4642 (used_gas_t x_0 x_1 x_2 0)))
 (let ((?x7998 (used_gas_s x_0 x_1 x_2 0)))
 (let (($x436 (= ?x7998 ?x4642)))
 (let (($x4889 (forall ((w (_ BitVec 256)) )(let ((?x35 (storage_t x_0 x_1 x_2 0 w)))
 (let ((?x8006 (storage_s x_0 x_1 x_2 0 w)))
 (= ?x8006 ?x35))))
 ))
 (let (($x56 (exc_halt_t 0)))
 (let (($x57 (exc_halt_s 0)))
 (let (($x58 (= $x57 $x56)))
 (let (($x5316 (forall ((n (_ BitVec 6)) )(let ((?x63 (sc_t 0)))
 (let (($x7266 (bvsle ?x63 n)))
 (let ((?x411 (stack_t x_0 x_1 x_2 0 n)))
 (let ((?x4657 (stack_s x_0 x_1 x_2 0 n)))
 (let (($x4782 (= ?x4657 ?x411)))
 (or $x4782 $x7266)))))))
 ))
 (let ((?x63 (sc_t 0)))
 (let ((?x72 (sc_s 0)))
 (let (($x73 (= ?x72 ?x63)))
 (let (($x4688 (= $x3723 (or (exc_halt_t 3) (not (bvsle (_ bv0 6) (bvadd (_ bv63 6) (sc_t 3))))))))
 (let (($x4728 (forall ((w (_ BitVec 256)) )(let ((?x4427 (storage_t x_0 x_1 x_2 3 w)))
 (let ((?x4744 (storage_t x_0 x_1 x_2 4 w)))
 (= ?x4744 ?x4427))))
 ))
 (let (($x4673 (forall ((n (_ BitVec 6)) )(let ((?x4584 (stack_t x_0 x_1 x_2 3 n)))
 (let ((?x32 (stack_t x_0 x_1 x_2 4 n)))
 (or (bvsle (bvadd (_ bv63 6) (sc_t 3)) n) (= ?x32 ?x4584)))))
 ))
 (let (($x4722 (= (used_gas_t x_0 x_1 x_2 4) (+ 2 (used_gas_t x_0 x_1 x_2 3)))))
 (let (($x10336 (exc_halt_t 3)))
 (let (($x8990 (= $x10336 (or (exc_halt_t 2) (not (bvsle (_ bv0 6) (bvadd (_ bv63 6) (sc_t 2))))))))
 (let (($x4890 (forall ((w (_ BitVec 256)) )(let ((?x4471 (storage_t x_0 x_1 x_2 2 w)))
 (let ((?x4427 (storage_t x_0 x_1 x_2 3 w)))
 (= ?x4427 ?x4471))))
 ))
 (let (($x4794 (forall ((n (_ BitVec 6)) )(let ((?x4056 (sc_t 2)))
 (let ((?x2158 (bvadd (_ bv63 6) ?x4056)))
 (let (($x6720 (bvsle ?x2158 n)))
 (let ((?x305 (stack_t x_0 x_1 x_2 2 n)))
 (let ((?x4584 (stack_t x_0 x_1 x_2 3 n)))
 (or (= ?x4584 ?x305) $x6720)))))))
 ))
 (let ((?x4677 (used_gas_t x_0 x_1 x_2 3)))
 (let (($x903 (exc_halt_t 2)))
 (let (($x4736 (= $x903 (or (exc_halt_t 1) (not (bvsle (_ bv0 6) (bvadd (_ bv60 6) (sc_t 1))))))))
 (let (($x4905 (forall ((w (_ BitVec 256)) )(let ((?x4360 (storage_t x_0 x_1 x_2 1 w)))
 (let ((?x4471 (storage_t x_0 x_1 x_2 2 w)))
 (= ?x4471 ?x4360))))
 ))
 (let (($x4748 (forall ((n (_ BitVec 6)) )(let ((?x4518 (stack_t x_0 x_1 x_2 1 n)))
 (let ((?x305 (stack_t x_0 x_1 x_2 2 n)))
 (or (= ?x305 ?x4518) (bvsle (bvadd (_ bv60 6) (sc_t 1)) n)))))
 ))
 (let ((?x4023 (sc_t 1)))
 (let ((?x4056 (sc_t 2)))
 (let (($x2975 (= ?x4056 ?x4023)))
 (let ((?x4624 (used_gas_t x_0 x_1 x_2 2)))
 (let (($x4766 (= (stack_t x_0 x_1 x_2 2 (bvadd (_ bv62 6) ?x4056)) (stack_t x_0 x_1 x_2 1 (bvadd (_ bv62 6) ?x4023)))))
 (let (($x4666 (= (stack_t x_0 x_1 x_2 2 (bvadd (_ bv61 6) ?x4056)) (stack_t x_0 x_1 x_2 1 (bvadd (_ bv61 6) ?x4023)))))
 (let ((?x3198 (bvadd (_ bv63 6) ?x4023)))
 (let ((?x5015 (stack_t x_0 x_1 x_2 1 ?x3198)))
 (let (($x4758 (= (stack_t x_0 x_1 x_2 2 (bvadd (_ bv63 6) ?x4056)) (stack_t x_0 x_1 x_2 1 (bvadd (_ bv60 6) ?x4023)))))
 (let (($x3039 (not (= ((_ extract 6 6) (bvadd (_ bv1 7) (concat (_ bv0 1) ?x63))) (_ bv0 1)))))
 (let (($x1920 (exc_halt_t 1)))
 (let (($x9858 (forall ((w (_ BitVec 256)) )(let ((?x35 (storage_t x_0 x_1 x_2 0 w)))
 (let ((?x4360 (storage_t x_0 x_1 x_2 1 w)))
 (= ?x4360 ?x35))))
 ))
 (let (($x4706 (forall ((n (_ BitVec 6)) )(let ((?x411 (stack_t x_0 x_1 x_2 0 n)))
 (let ((?x4518 (stack_t x_0 x_1 x_2 1 n)))
 (or (= ?x4518 ?x411) (bvsle (bvadd (_ bv62 6) (sc_t 0)) n)))))
 ))
 (let (($x9398 (= ?x4023 (bvadd (_ bv1 6) ?x63))))
 (let (($x9483 (= (stack_t x_0 x_1 x_2 1 (bvadd (_ bv63 6) ?x63)) (stack_t x_0 x_1 x_2 0 (bvadd (_ bv63 6) ?x63)))))
 (let ((?x5024 (bvadd (_ bv62 6) ?x63)))
 (let ((?x4645 (stack_t x_0 x_1 x_2 0 ?x5024)))
 (let (($x5014 (= $x3979 (or (exc_halt_s 4) (not (bvsle (_ bv0 6) (bvadd (_ bv63 6) (sc_s 4))))))))
 (let (($x4650 (forall ((w (_ BitVec 256)) )(let ((?x4546 (storage_s x_0 x_1 x_2 4 w)))
 (let ((?x4791 (storage_s x_0 x_1 x_2 5 w)))
 (= ?x4791 ?x4546))))
 ))
 (let (($x5026 (forall ((n (_ BitVec 6)) )(let ((?x4502 (stack_s x_0 x_1 x_2 4 n)))
 (let ((?x202 (stack_s x_0 x_1 x_2 5 n)))
 (or (= ?x202 ?x4502) (bvsle (bvadd (_ bv63 6) (sc_s 4)) n)))))
 ))
 (let ((?x4305 (sc_s 4)))
 (let ((?x477 (bvadd (_ bv63 6) ?x4305)))
 (let (($x1899 (= ?x805 ?x477)))
 (let (($x5679 (= (used_gas_s x_0 x_1 x_2 5) (+ 2 (used_gas_s x_0 x_1 x_2 4)))))
 (let (($x64 (exc_halt_s 4)))
 (let (($x460 (= $x64 (or (exc_halt_s 3) (not (bvsle (_ bv0 6) (bvadd (_ bv63 6) (sc_s 3))))))))
 (let (($x5032 (forall ((w (_ BitVec 256)) )(let ((?x557 (storage_s x_0 x_1 x_2 3 w)))
 (let ((?x4546 (storage_s x_0 x_1 x_2 4 w)))
 (= ?x4546 ?x557))))
 ))
 (let (($x4377 (forall ((n (_ BitVec 6)) )(let ((?x4574 (stack_s x_0 x_1 x_2 3 n)))
 (let ((?x4502 (stack_s x_0 x_1 x_2 4 n)))
 (let ((?x275 (sc_s 3)))
 (let ((?x9061 (bvadd (_ bv63 6) ?x275)))
 (let (($x847 (bvsle ?x9061 n)))
 (or $x847 (= ?x4502 ?x4574))))))))
 ))
 (let ((?x275 (sc_s 3)))
 (let ((?x9061 (bvadd (_ bv63 6) ?x275)))
 (let (($x1866 (= ?x4305 ?x9061)))
 (let ((?x4462 (used_gas_s x_0 x_1 x_2 4)))
 (let (($x292 (exc_halt_s 3)))
 (let (($x3551 (= $x292 (or (exc_halt_s 2) (not (bvsle (_ bv0 6) (bvadd (_ bv60 6) (sc_s 2))))))))
 (let (($x5044 (forall ((w (_ BitVec 256)) )(let ((?x4542 (storage_s x_0 x_1 x_2 2 w)))
 (let ((?x557 (storage_s x_0 x_1 x_2 3 w)))
 (= ?x557 ?x4542))))
 ))
 (let (($x4351 (forall ((n (_ BitVec 6)) )(let ((?x6450 (stack_s x_0 x_1 x_2 2 n)))
 (let ((?x4574 (stack_s x_0 x_1 x_2 3 n)))
 (let ((?x218 (sc_s 2)))
 (let ((?x3286 (bvadd (_ bv60 6) ?x218)))
 (let (($x3186 (bvsle ?x3286 n)))
 (or $x3186 (= ?x4574 ?x6450))))))))
 ))
 (let ((?x218 (sc_s 2)))
 (let (($x3459 (= ?x275 ?x218)))
 (let ((?x4533 (used_gas_s x_0 x_1 x_2 3)))
 (let (($x4633 (= (stack_s x_0 x_1 x_2 3 (bvadd (_ bv62 6) ?x275)) (stack_s x_0 x_1 x_2 2 (bvadd (_ bv62 6) ?x218)))))
 (let (($x4859 (= (stack_s x_0 x_1 x_2 3 (bvadd (_ bv61 6) ?x275)) (stack_s x_0 x_1 x_2 2 (bvadd (_ bv61 6) ?x218)))))
 (let ((?x3563 (bvadd (_ bv63 6) ?x218)))
 (let ((?x4718 (stack_s x_0 x_1 x_2 2 ?x3563)))
 (let (($x4478 (= (stack_s x_0 x_1 x_2 3 ?x9061) (stack_s x_0 x_1 x_2 2 (bvadd (_ bv60 6) ?x218)))))
 (let (($x8796 (not (= ((_ extract 6 6) (bvadd (_ bv1 7) (concat (_ bv0 1) (sc_s 1)))) (_ bv0 1)))))
 (let (($x189 (exc_halt_s 1)))
 (let (($x247 (exc_halt_s 2)))
 (let (($x7088 (= $x247 (or $x189 (not (bvsle (_ bv0 6) (bvadd (_ bv62 6) (sc_s 1)))) $x8796))))
 (let (($x4668 (forall ((w (_ BitVec 256)) )(let ((?x4499 (storage_s x_0 x_1 x_2 1 w)))
 (let ((?x4542 (storage_s x_0 x_1 x_2 2 w)))
 (= ?x4542 ?x4499))))
 ))
 (let (($x4837 (forall ((n (_ BitVec 6)) )(let ((?x4606 (stack_s x_0 x_1 x_2 1 n)))
 (let ((?x6450 (stack_s x_0 x_1 x_2 2 n)))
 (let ((?x154 (sc_s 1)))
 (let ((?x3271 (bvadd (_ bv62 6) ?x154)))
 (let (($x3254 (bvsle ?x3271 n)))
 (or $x3254 (= ?x6450 ?x4606))))))))
 ))
 (let (($x6573 (= ?x218 (bvadd (_ bv1 6) (sc_s 1)))))
 (let ((?x4573 (used_gas_s x_0 x_1 x_2 2)))
 (let ((?x154 (sc_s 1)))
 (let ((?x3584 (bvadd (_ bv63 6) ?x154)))
 (let ((?x552 (stack_s x_0 x_1 x_2 1 ?x3584)))
 (let ((?x3271 (bvadd (_ bv62 6) ?x154)))
 (let ((?x4667 (stack_s x_0 x_1 x_2 1 ?x3271)))
 (let (($x4812 (forall ((w (_ BitVec 256)) )(let ((?x8006 (storage_s x_0 x_1 x_2 0 w)))
 (let ((?x4499 (storage_s x_0 x_1 x_2 1 w)))
 (= ?x4499 ?x8006))))
 ))
 (let (($x4369 (forall ((n (_ BitVec 6)) )(let ((?x4657 (stack_s x_0 x_1 x_2 0 n)))
 (let ((?x4606 (stack_s x_0 x_1 x_2 1 n)))
 (or (bvsle (bvadd (_ bv61 6) (sc_s 0)) n) (= ?x4606 ?x4657)))))
 ))
 (let (($x3865 (= ?x154 ?x72)))
 (let (($x167 (= (stack_s x_0 x_1 x_2 1 (bvadd (_ bv61 6) ?x154)) (stack_s x_0 x_1 x_2 0 (bvadd (_ bv63 6) ?x72)))))
 (let (($x6330 (forall ((w (_ BitVec 256)) )(let ((?x8006 (storage_s x_0 x_1 x_2 0 w)))
 (= ?x8006 (_ bv0 256))))
 ))
 (let (($x5131 (= ?x7998 0)))
 (let (($x3253 (not $x57)))
 (let (($x319 (= (stack_s x_0 x_1 x_2 0 (_ bv2 6)) x_2)))
 (let (($x310 (= (stack_s x_0 x_1 x_2 0 (_ bv1 6)) x_1)))
 (let (($x4739 (= (stack_s x_0 x_1 x_2 0 (_ bv0 6)) x_0)))
 (let (($x96 (= ?x72 (_ bv3 6))))
 (and $x96 $x4739 $x310 $x319 $x3253 $x5131 $x6330 (= ?x552 (stack_s x_0 x_1 x_2 0 (bvadd (_ bv61 6) ?x72))) $x167 (= ?x4667 (stack_s x_0 x_1 x_2 0 (bvadd (_ bv62 6) ?x72))) (= (used_gas_s x_0 x_1 x_2 1) (+ 3 ?x7998)) $x3865 $x4369 $x4812 (= $x189 (or $x57 (not (bvsle (_ bv0 6) (bvadd (_ bv61 6) ?x72))))) (= ?x4718 ?x4667) (= (stack_s x_0 x_1 x_2 2 ?x3271) ?x4667) (= (stack_s x_0 x_1 x_2 2 ?x3584) ?x552) (= ?x4573 (+ 3 (used_gas_s x_0 x_1 x_2 1))) $x6573 $x4837 $x4668 $x7088 $x4478 (= (stack_s x_0 x_1 x_2 3 (bvadd (_ bv60 6) ?x275)) ?x4718) $x4859 $x4633 (= ?x4533 (+ 3 ?x4573)) $x3459 $x4351 $x5044 $x3551 (= ?x4462 (+ 2 ?x4533)) $x1866 $x4377 $x5032 $x460 $x5679 $x1899 $x5026 $x4650 $x5014 (= ?x5015 ?x4645) (= (stack_t x_0 x_1 x_2 1 ?x5024) ?x4645) $x9483 (= (used_gas_t x_0 x_1 x_2 1) (+ 3 ?x4642)) $x9398 $x4706 $x9858 (= $x1920 (or $x56 $x3039 (not (bvsle (_ bv0 6) ?x5024)))) $x4758 (= (stack_t x_0 x_1 x_2 2 (bvadd (_ bv60 6) ?x4056)) ?x5015) $x4666 $x4766 (= ?x4624 (+ 3 (used_gas_t x_0 x_1 x_2 1))) $x2975 $x4748 $x4905 $x4736 (= ?x4677 (+ 2 ?x4624)) (= (sc_t 3) (bvadd (_ bv63 6) ?x4056)) $x4794 $x4890 $x8990 $x4722 (= ?x3757 (bvadd (_ bv63 6) (sc_t 3))) $x4673 $x4728 $x4688 $x73 $x5316 $x58 $x4889 $x436 (not (and $x9143 $x4703 $x7567 $x297))))))))))))))))))))))))))))))))))))))))))))))))))))))))))))))))))))))))))))))))))))))))))))))))))))))))
 )
(check-sat)
(get-proof)
